
   AbsCon 1.41 (January, 2014) - defaultConfiguration

   
   instance
        framework=CSP  name=Isomorphism-/cluster/gpg/ciaran/sip-benchmarks/benchmarks/LV/g17-/cluster/gpg/ciaran/sip-benchmarks/benchmarks/LV/g37
        parameters=/cluster/gpg/ciaran/sip-benchmarks/benchmarks/LV/g17,/cluster/gpg/ciaran/sip-benchmarks/benchmarks/LV/g37
      

   loading variables...
        nbVariables=64  nbDomainTypes=1  nbTotalValues=7680  domainSizes=(120:64)
          =>  wckTime=0.178  cpuTime=0.304  mem=9M559

   loading objectives...

   loading constraints...
        nbConstraints=113  nbSpecificConstraints=1  nbExtensionStructures=(1,shared:111)  nbConflictsStructures=(1,shared:111,unbuilt:1)
        degrees=(3:4)(4:24)(5:36)  arities=(2:112)(64:1)  types=(AllDifferent:1)(ConstraintHardExtensionV-Bits:112)
          =>  wckTime=0.24  cpuTime=0.363  mem=7M311

   INFO : <!-- Start saving the XML representation -->

   INFO : <!-- Stop saving the XML representation of g37.xml -->

   Solver SolverBacktrack being built... 
          =>  wckTime=0.426  cpuTime=0.529  mem=21M269

    instantiation X0=113 X1=101 X2=42 X3=104 X4=21 X5=41 X6=16 X7=32 X8=18 X9=116 X10=22 X11=43 X12=90 X13=2 X14=30 X15=105 X16=79 X17=34 X18=11 X19=96 X20=110 X21=114 X22=57 X23=115 X24=61 X25=88 X26=87 X27=71 X28=67 X29=68 X30=8 X31=69 X32=46 X33=19 X34=55 X35=108 X36=27 X37=31 X38=100 X39=109 X40=26 X41=64 X42=33 X43=75 X44=78 X45=77 X46=98 X47=106 X48=112 X49=15 X50=25 X51=4 X52=84 X53=60 X54=48 X55=62 X56=0 X57=93 X58=50 X59=37 X60=3 X61=49 X62=95 X63=92 

    solution X0=113 X1=101 X2=42 X3=104 X4=21 X5=41 X6=16 X7=32 X8=18 X9=116 X10=22 X11=43 X12=90 X13=2 X14=30 X15=105 X16=79 X17=34 X18=11 X19=96 X20=110 X21=114 X22=57 X23=115 X24=61 X25=88 X26=87 X27=71 X28=67 X29=68 X30=8 X31=69 X32=46 X33=19 X34=55 X35=108 X36=27 X37=31 X38=100 X39=109 X40=26 X41=64 X42=33 X43=75 X44=78 X45=77 X46=98 X47=106 X48=112 X49=15 X50=25 X51=4 X52=84 X53=60 X54=48 X55=62 X56=0 X57=93 X58=50 X59=37 X60=3 X61=49 X62=95 X63=92 

   
   search
        run=0  nbConstraintChecks=113  depth=(min:0,max:63,avg:17)  nbEffectivePropagations=66686471  nbRevisions=119850403  nbUselessRevisions=104603665
        nbAssignments=1248098  nbFailedAssignments=432554  nbBacktracks=815480  nbVisitedNodes=1907430  nbRestartNogoods=0  nbFoundSolutions=1
        upperBound=9223372036854775807
          =>  wckTime=10017.761  cpuTime=9925.175  mem=39M68

   
   global
        nbConstraintChecks=113  nbEffectivePropagations=66686471  nbRevisions=119850403  nbUselessRevisions=104603665  nbRestartNogoods=0
        solvingWckTime=10017.762  expiredTime=no  totalExploration=no  nbFoundSolutions=1  firstSolutionCpuTime=9925.173  Stop=REACHED_GOAL
          =>  wckTime=10018.189  cpuTime=9925.176  mem=39M68

s SATISFIABLE
v X0=113 X1=101 X2=42 X3=104 X4=21 X5=41 X6=16 X7=32 X8=18 X9=116 X10=22 X11=43 X12=90 X13=2 X14=30 X15=105 X16=79 X17=34 X18=11 X19=96 X20=110 X21=114 X22=57 X23=115 X24=61 X25=88 X26=87 X27=71 X28=67 X29=68 X30=8 X31=69 X32=46 X33=19 X34=55 X35=108 X36=27 X37=31 X38=100 X39=109 X40=26 X41=64 X42=33 X43=75 X44=78 X45=77 X46=98 X47=106 X48=112 X49=15 X50=25 X51=4 X52=84 X53=60 X54=48 X55=62 X56=0 X57=93 X58=50 X59=37 X60=3 X61=49 X62=95 X63=92 
d NODES 1248098

   totalWckTime=10018.093  totalCpuTime=9925.176
